
  22    4
  10   10   10   10

   0   0   0   0   0   4 2 3 5 6 
   1  10  10  10  10   4 11 10 8 7 
   5  10  10  10  10   1 4 
   9  10  10  10  10   3 14 9 8 
   8  10  10  10  10   3 12 11 9 
   4  10  10  10  10   2 14 8 
   6  10  10  10  10   2 12 9 
   6  10  10  10  10   3 16 13 12 
   6  10  10  10  10   3 16 15 13 
   8  10  10  10  10   3 16 15 13 
  10  10  10  10  10   2 16 14 
   5  10  10  10  10   2 17 15 
   6  10  10  10  10   2 18 17 
   5  10  10  10  10   1 15 
   6  10  10  10  10   2 21 18 
   5  10  10  10  10   1 18 
   2  10  10  10  10   2 21 20 
  10  10  10  10  10   1 19 
   1  10  10  10  10   1 20 
   1  10  10  10  10   1 22
   6  10  10  10  10   1 22
   0   0   0   0   0   0 
